CMPL model generation - running

CMPL version: 1.11.0
Authors: Thomas Schleiff, Mike Steglich
Distributed under the GPLv3 

create model instance ...
write model instance ...
CMPL model generation - finished

Solver - running


Welcome to IBM(R) ILOG(R) CPLEX(R) Interactive Optimizer 12.7.1.0
  with Simplex, Mixed Integer & Barrier Optimizers
5725-A06 5725-A29 5724-Y48 5724-Y49 5724-Y54 5724-Y55 5655-Y21
Copyright IBM Corp. 1988, 2017.  All Rights Reserved.

Type 'help' for a list of available commands.
Type 'help' followed by a command name for more
information on commands.

CPLEX> Specified objective sense: MINIMIZE
Selected objective  name:  line[1]
Selected RHS        name:  RHS
Selected bound      name:  BOUND
Problem '/tmp/cmpl.T24643.mps' read.
Read time = 0.05 sec. (8.19 ticks)
CPLEX> CPXPARAM_Read_APIEncoding                        "UTF-8"
Tried aggregator 3 times.
MIP Presolve eliminated 19014 rows and 30266 columns.
MIP Presolve modified 340 coefficients.
Aggregator did 799 substitutions.
Reduced MIP has 2542 rows, 3528 columns, and 10284 nonzeros.
Reduced MIP has 3360 binaries, 0 generals, 0 SOSs, and 0 indicators.
Presolve time = 0.06 sec. (40.98 ticks)
Found incumbent of value 1798.603407 after 0.11 sec. (72.40 ticks)
Probing fixed 31 vars, tightened 0 bounds.
Probing time = 0.01 sec. (4.67 ticks)
Tried aggregator 1 time.
MIP Presolve eliminated 0 rows and 31 columns.
MIP Presolve modified 192 coefficients.
Reduced MIP has 2542 rows, 3497 columns, and 10222 nonzeros.
Reduced MIP has 3497 binaries, 0 generals, 0 SOSs, and 0 indicators.
Presolve time = 0.01 sec. (9.98 ticks)
Probing time = 0.01 sec. (2.71 ticks)
Clique table members: 6364.
MIP emphasis: balance optimality and feasibility.
MIP search method: dynamic search.
Parallel mode: none, using 1 thread.
Root relaxation solution time = 0.01 sec. (7.82 ticks)

        Nodes                                         Cuts/
   Node  Left     Objective  IInf  Best Integer    Best Bound    ItCnt     Gap

*     0+    0                         1798.6034       -4.0316           100.22%
      0     0      550.6841    16     1798.6034      550.6841      350   69.38%
*     0     0      integral     0      550.6894       Cuts: 3      351    0.00%
      0     0        cutoff            550.6894      550.6894      351    0.00%
Elapsed time = 0.19 sec. (121.19 ticks, tree = 0.01 MB, solutions = 2)

Zero-half cuts applied:  1
Lift and project cuts applied:  1
Gomory fractional cuts applied:  1

Root node processing (before b&c):
  Real time             =    0.19 sec. (122.49 ticks)
Sequential b&c:
  Real time             =    0.00 sec. (0.00 ticks)
                          ------------
Total (root+branch&cut) =    0.19 sec. (122.49 ticks)

Solution pool: 2 solutions saved.

MIP - Integer optimal solution:  Objective =  5.5068943000e+02
Solution time =    0.19 sec.  Iterations = 351  Nodes = 0
Deterministic time = 122.59 ticks  (639.91 ticks/sec)

CPLEX> Incumbent solution written to file '/tmp/cmpl.T24643.gsol'.
CPLEX> 
CMPL: Time used for model generation: 1 seconds
CMPL: Time used for solving the model: 1 seconds


Solution written to ASCII file: results/output_generated_conf_0.8/2017-02-06-4/fair-nonlinear.sol

Solver - finished
